
%FILE DATA:	Soccer Computational Problem for MiniZinc Models	%
%AUTHOR:	Jack Wall	%
%CONTACT:  	116397063@umail.ucc.ie			%
%LAST UPDATE:	03/12/2020, 10:36:46						%
%DESCRIPTION: 	130 games played with 26 games left				%


n=13; %number of teams

%Games to play
games=[|1,4|6,4|10,6|11,2|4,11|8,2|9,10|11,6|2,13|9,2|8,4|10,3|6,13|10,5|13,9|13,11|12,11|4,5|10,1|7,8|9,6|8,6|3,10|11,12|8,12|5,9|];

%Initial points
iPoints=[38,16,37,24,23,34,34,24,31,23,23,25,21];

%POSITION CONSTRAINTS
% [|teamID, operator, position|...]
% operators index:
%  1 for =  operator
%  2 for >  operator
%  3 for >= operator
%  4 for <  operator
%  5 for <= operator
positionConstraints=[|9,1,1|6,2,1|3,3,3|1,5,4|];